NAME : SCA3-2.73521.tour
COMMENT : Cost = 0_73521
COMMENT : Found by LKH [Keld Helsgaun] Thu Sep 14 15:14:59 2017
TYPE : TOUR
DIMENSION : 54
TOUR_SECTION
1
34
39
29
25
23
30
21
14
7
5
40
45
51
3
52
46
44
37
48
10
26
11
13
33
28
20
9
32
15
53
24
12
43
41
22
6
35
8
16
50
31
49
19
54
18
4
47
27
42
17
38
2
36
-1
EOF
